100 152480
13 76 53 74 3 23 93 67 20 1 34 19 78 33 52 89 35 91 73 4 42 29 16 30 57 24 79 51 59 60 75 82 87 2 95 63 12 40 88 84 97 25 86 83 44 50 64 66 27 36 71 43 46 9 11 49 56 55 28 96 37 94 98 65 41 22 10 81 99 100 39 54 32 5 58 90 38 92 68 62 21 80 15 31 69 14 26 8 77 61 7 72 47 6 17 48 45 70 18 85 
